Output/BruteForce/Random_025_02_6.ans
Facilties: 1 3 8 12 14 16 Score: 37
