Output/Exact/Random_025_02_6.lp.out
CPU Time for Parsing input: 0.002851s (0.002851s total since program start)
CPU Time for solving: 3.32006s (3.32291s total since program start)

Value of objective function: 37.00000000
